NAME          RANCO
ROWS
 G  N
 G  P
 G  K
 G  S
 G  MG
 G  B
 G  ZN
 G  DEN
 E  WT
 N  COST
 N  PRICE
COLUMNS
*234567890123456789012345678901234567890123456789012345678901
    I184600   N             0.180000   P             0.460000   
    I184600   DEN           0.016065   WT            1.000000   
    I184600   COST        183.000000   PRICE       228.750000   
    I184600   SCALE      2000.000000   
    I115200   N             0.110000   P             0.520000   
    I115200   DEN           0.015447   WT            1.000000   
    I115200   COST        183.000000   PRICE       228.750000   
    I115200   SCALE      2000.000000   
    I004600   P             0.460000   DEN           0.014365   
    I004600   WT            1.000000   COST        143.000000   
    I004600   PRICE       178.750000   SCALE      2000.000000   
    I460000   N             0.460000   DEN           0.020918   
    I460000   WT            1.000000   COST        160.000000   
    I460000   PRICE       200.000000   SCALE      2000.000000   
    I210000   N             0.210000   S             0.240000   
    I210000   DEN           0.020492   WT            1.000000   
    I210000   COST        110.000000   PRICE       137.500000   
    I210000   SCALE      2000.000000   
    I000060   K             0.600000   DEN           0.015471   
    I000060   WT            1.000000   COST         90.000000   
    I000060   PRICE       112.500000   SCALE      2000.000000   
    I000022   K             0.220000   S             0.220000   
    I000022   MG            0.110000   DEN           0.010288   
    I000022   WT            1.000000   COST        110.000000   
    I000022   PRICE       137.500000   SCALE      2000.000000   
    I20S36Z   S             0.200000   ZN            0.360000   
    I20S36Z   DEN           0.013057   WT            1.000000   
    I20S36Z   COST        400.000000   PRICE       500.000000   
    I20S36Z   SCALE      2000.000000   
    I14B000   B             0.143000   DEN           0.021971   
    I14B000   WT            1.000000   COST        420.000000   
    I14B000   PRICE       525.000000   SCALE      2000.000000   
    I000000   DEN           0.011156   WT            1.000000   
    I000000   COST         28.000000   PRICE        35.000000   
    I000000   SCALE      2000.000000   
    LASSO     DEN           0.015020   WT            1.000000   
    LASSO     COST          7.500000   PRICE         8.750000   
    LASSO     SCALE         2.225000   
    SQUADRON  DEN           0.015105   WT            1.000000   
    SQUADRON  COST          4.750000   PRICE         5.625000   
    SQUADRON  SCALE         1.106300   
    SEED      DEN           0.020081   WT            1.000000   
    SEED      COST          0.250000   PRICE         0.350000   
    SEED      SCALE         1.000000   
    PRODUCT   WT           -1.000000   COST          0.000000   
    PRODUCT   PRICE         0.000000   SCALE         1.000000   
*234567890123456789012345678901234567890123456789012345678901
RHS
RANGES
ENDATA
